; startingXwhite-crane-spread-wings
(set-info :status unknown)
(set-logic QF_AUFLIRA)
(declare-fun |FootLeft Norm| () Real)
(declare-fun |FootLeft Z| () Real)
(declare-fun |HipLeft Norm| () Real)
(declare-fun |HipLeft Z| () Real)
(declare-fun |KneeLeft Norm| () Real)
(declare-fun |KneeLeft Z| () Real)
(declare-fun |AnkleLeft Norm| () Real)
(declare-fun |AnkleLeft Z| () Real)
(declare-fun |FootRight Norm| () Real)
(declare-fun |FootRight Z| () Real)
(declare-fun |HipRight Norm| () Real)
(declare-fun |HipRight Z| () Real)
(declare-fun |KneeRight Norm| () Real)
(declare-fun |KneeRight Z| () Real)
(declare-fun |AnkleRight Norm| () Real)
(declare-fun |AnkleRight Z| () Real)
(declare-fun |HandRight Norm| () Real)
(declare-fun |HandRight Z| () Real)
(declare-fun |SpineMid Norm| () Real)
(declare-fun |SpineMid Z| () Real)
(declare-fun |SpineShoulder Norm| () Real)
(declare-fun |SpineShoulder Z| () Real)
(declare-fun |ShoulderRight Norm| () Real)
(declare-fun |ShoulderRight Z| () Real)
(declare-fun |ElbowRight Norm| () Real)
(declare-fun |ElbowRight Z| () Real)
(declare-fun |WristRight Norm| () Real)
(declare-fun |WristRight Z| () Real)
(declare-fun |HandLeft Norm| () Real)
(declare-fun |HandLeft Z| () Real)
(declare-fun |ShoulderLeft Norm| () Real)
(declare-fun |ShoulderLeft Z| () Real)
(declare-fun |ElbowLeft Norm| () Real)
(declare-fun |ElbowLeft Z| () Real)
(declare-fun |WristLeft Norm| () Real)
(declare-fun |WristLeft Z| () Real)
(declare-fun |HandRight Y| () Real)
(declare-fun |SpineMid Y| () Real)
(declare-fun |SpineShoulder Y| () Real)
(declare-fun |ShoulderRight Y| () Real)
(declare-fun |ElbowRight Y| () Real)
(declare-fun |WristRight Y| () Real)
(declare-fun |HandLeft Y| () Real)
(declare-fun |ShoulderLeft Y| () Real)
(declare-fun |ElbowLeft Y| () Real)
(declare-fun |WristLeft Y| () Real)
(declare-fun |HandRight X| () Real)
(declare-fun |SpineMid X| () Real)
(declare-fun |SpineShoulder X| () Real)
(declare-fun |ShoulderRight X| () Real)
(declare-fun |ElbowRight X| () Real)
(declare-fun |WristRight X| () Real)
(declare-fun |HandLeft X| () Real)
(declare-fun |ShoulderLeft X| () Real)
(declare-fun |ElbowLeft X| () Real)
(declare-fun |WristLeft X| () Real)
(declare-fun |AnkleLeft Y| () Real)
(declare-fun |KneeRight Y| () Real)
(declare-fun |AnkleLeft X| () Real)
(declare-fun |KneeRight X| () Real)
(declare-fun |KneeLeft Y| () Real)
(declare-fun |KneeLeft X| () Real)
(declare-fun |ThumbRight Z| () Real)
(declare-fun |ThumbRight Y| () Real)
(declare-fun |ThumbRight X| () Real)
(assert
(let ((?x6892 (* |FootLeft Z| |FootLeft Norm|)))
(let ((?x258 (* |HipLeft Z| |HipLeft Norm|)))
(let ((?x252 (* |KneeLeft Z| |KneeLeft Norm|)))
(let ((?x246 (* |AnkleLeft Z| |AnkleLeft Norm|)))
(let ((?x6785 (+ 0.0 ?x6892)))
(let ((?x6805 (+ ?x6785 ?x246)))
(let ((?x6828 (+ ?x6805 ?x252)))
(let ((?x6863 (+ ?x6828 ?x258)))
(let ((?x6980 (+ ?x6863 ?x6892)))
(let ((?x6981 (- ?x6980 (/ 1.0 10.0))))
(let ((?x7075 (* |FootRight Z| |FootRight Norm|)))
(let ((?x279 (* |HipRight Z| |HipRight Norm|)))
(let ((?x273 (* |KneeRight Z| |KneeRight Norm|)))
(let ((?x267 (* |AnkleRight Z| |AnkleRight Norm|)))
(let ((?x7080 (+ 0.0 ?x7075)))
(let ((?x6596 (+ ?x7080 ?x267)))
(let ((?x7090 (+ ?x6596 ?x273)))
(let ((?x7265 (+ ?x7090 ?x279)))
(let ((?x7283 (+ ?x7265 ?x7075)))
(let (($x6985 (< ?x7283 ?x6981)))
(let (($x7944 (and true $x6985)))
(let ((?x3920 (* |HandRight Z| |HandRight Norm|)))
(let ((?x159 (* |SpineMid Z| |SpineMid Norm|)))
(let ((?x435 (* |SpineShoulder Z| |SpineShoulder Norm|)))
(let ((?x4101 (* |ShoulderRight Z| |ShoulderRight Norm|)))
(let ((?x5251 (* |ElbowRight Z| |ElbowRight Norm|)))
(let ((?x5344 (* |WristRight Z| |WristRight Norm|)))
(let ((?x5111 (+ 0.0 ?x3920)))
(let ((?x4613 (+ ?x5111 ?x5344)))
(let ((?x4022 (+ ?x4613 ?x5251)))
(let ((?x4695 (+ ?x4022 ?x4101)))
(let ((?x5490 (+ ?x4695 ?x435)))
(let ((?x4887 (+ ?x5490 ?x159)))
(let ((?x4791 (+ ?x4887 ?x3920)))
(let ((?x5357 (* |HandLeft Z| |HandLeft Norm|)))
(let ((?x420 (* |ShoulderLeft Z| |ShoulderLeft Norm|)))
(let ((?x516 (* |ElbowLeft Z| |ElbowLeft Norm|)))
(let ((?x4542 (* |WristLeft Z| |WristLeft Norm|)))
(let ((?x4357 (+ 0.0 ?x5357)))
(let ((?x5452 (+ ?x4357 ?x4542)))
(let ((?x5215 (+ ?x5452 ?x516)))
(let ((?x4670 (+ ?x5215 ?x420)))
(let ((?x4801 (+ ?x4670 ?x435)))
(let ((?x4006 (+ ?x4801 ?x159)))
(let ((?x5401 (+ ?x4006 ?x5357)))
(let ((?x4421 (* |HandRight Y| |HandRight Norm|)))
(let ((?x443 (* |SpineMid Y| |SpineMid Norm|)))
(let ((?x427 (* |SpineShoulder Y| |SpineShoulder Norm|)))
(let ((?x5302 (* |ShoulderRight Y| |ShoulderRight Norm|)))
(let ((?x5405 (* |ElbowRight Y| |ElbowRight Norm|)))
(let ((?x4865 (* |WristRight Y| |WristRight Norm|)))
(let ((?x4697 (+ 0.0 ?x4421)))
(let ((?x4533 (+ ?x4697 ?x4865)))
(let ((?x5310 (+ ?x4533 ?x5405)))
(let ((?x5396 (+ ?x5310 ?x5302)))
(let ((?x3655 (+ ?x5396 ?x427)))
(let ((?x5158 (+ ?x3655 ?x443)))
(let ((?x5068 (+ ?x5158 ?x4421)))
(let ((?x6081 (+ ?x5068 (/ 1.0 10.0))))
(let ((?x5556 (* |HandLeft Y| |HandLeft Norm|)))
(let ((?x417 (* |ShoulderLeft Y| |ShoulderLeft Norm|)))
(let ((?x5520 (* |ElbowLeft Y| |ElbowLeft Norm|)))
(let ((?x5443 (* |WristLeft Y| |WristLeft Norm|)))
(let ((?x3426 (+ 0.0 ?x5556)))
(let ((?x4574 (+ ?x3426 ?x5443)))
(let ((?x5489 (+ ?x4574 ?x5520)))
(let ((?x5554 (+ ?x5489 ?x417)))
(let ((?x5550 (+ ?x5554 ?x427)))
(let ((?x4047 (+ ?x5550 ?x443)))
(let ((?x5379 (+ ?x4047 ?x5556)))
(let (($x6350 (> ?x5379 ?x6081)))
(let ((?x5582 (* |HandRight X| |HandRight Norm|)))
(let ((?x441 (* |SpineMid X| |SpineMid Norm|)))
(let ((?x426 (* |SpineShoulder X| |SpineShoulder Norm|)))
(let ((?x5113 (* |ShoulderRight X| |ShoulderRight Norm|)))
(let ((?x5038 (* |ElbowRight X| |ElbowRight Norm|)))
(let ((?x3199 (* |WristRight X| |WristRight Norm|)))
(let ((?x4842 (+ 0.0 ?x5582)))
(let ((?x2189 (+ ?x4842 ?x3199)))
(let ((?x3677 (+ ?x2189 ?x5038)))
(let ((?x4996 (+ ?x3677 ?x5113)))
(let ((?x5513 (+ ?x4996 ?x426)))
(let ((?x3730 (+ ?x5513 ?x441)))
(let ((?x4756 (+ ?x3730 ?x5582)))
(let ((?x5403 (* |HandLeft X| |HandLeft Norm|)))
(let ((?x416 (* |ShoulderLeft X| |ShoulderLeft Norm|)))
(let ((?x4877 (* |ElbowLeft X| |ElbowLeft Norm|)))
(let ((?x5524 (* |WristLeft X| |WristLeft Norm|)))
(let ((?x4526 (+ 0.0 ?x5403)))
(let ((?x4668 (+ ?x4526 ?x5524)))
(let ((?x4643 (+ ?x4668 ?x4877)))
(let ((?x3777 (+ ?x4643 ?x416)))
(let ((?x5406 (+ ?x3777 ?x426)))
(let ((?x5235 (+ ?x5406 ?x441)))
(let ((?x5331 (+ ?x5235 ?x5403)))
(let (($x7424 (and true (> ?x5331 (+ ?x4756 (/ 1.0 10.0))))))
(let (($x7425 (and $x7424 $x6350)))
(let (($x7042 (and $x7425 (< ?x5401 (- ?x4791 (/ 1.0 10.0))))))
(let (($x7041 (and $x7042 $x6985)))
(let ((?x7149 (- ?x5401 ?x4791)))
(let ((?x6299 (ite (>= ?x7149 0.0) ?x7149 (- 0.0 ?x7149))))
(let ((?x6622 (- ?x5379 ?x5068)))
(let ((?x6286 (ite (>= ?x6622 0.0) ?x6622 (- 0.0 ?x6622))))
(let ((?x6526 (- ?x5331 ?x4756)))
(let ((?x6840 (ite (>= ?x6526 0.0) ?x6526 (- 0.0 ?x6526))))
(let ((?x6514 (ite (>= ?x6840 ?x6286) ?x6840 ?x6286)))
(let (($x6528 (and true $x6350)))
(let (($x6303 (and $x6528 (not (< (ite (>= ?x6514 ?x6299) ?x6514 ?x6299) (/ 1.0 5.0))))))
(let (($x6992 (and $x6303 $x6985)))
(let ((?x6247 (* (~ 1.0) |ElbowRight Norm|)))
(let ((?x11271 (* 1.0 |SpineMid Norm|)))
(let ((?x4285 (* 1.0 |SpineShoulder Norm|)))
(let ((?x6175 (+ 0.0 ?x6247)))
(let ((?x6580 (+ ?x6175 ?x5302)))
(let ((?x8207 (+ ?x6580 ?x4285)))
(let ((?x11011 (+ ?x8207 ?x11271)))
(let ((?x10914 (+ ?x11011 ?x6247)))
(let ((?x10532 (- ?x10914 (/ 1.0 10.0))))
(let ((?x194 (* (/ 171.0 500.0) 0.0)))
(let ((?x3828 (* (/ 939.0 1000.0) 1.0)))
(let ((?x5439 (+ ?x3828 ?x194)))
(let ((?x197 (* (~ (/ 171.0 500.0)) 0.0)))
(let ((?x4064 (+ ?x3828 ?x197)))
(let (($x350 (>= 1.0 0.0)))
(let ((?x4293 (ite $x350 ?x4064 ?x5439)))
(let ((?x351 (- 0.0 1.0)))
(let ((?x352 (ite $x350 1.0 ?x351)))
(let ((?x113 (- 0.0 0.0)))
(let (($x112 (>= 0.0 0.0)))
(let ((?x114 (ite $x112 0.0 ?x113)))
(let (($x5024 (>= ?x114 ?x352)))
(let ((?x4699 (ite $x5024 1.0 ?x4293)))
(let ((?x187 (* (/ 939.0 1000.0) 0.0)))
(let ((?x321 (+ ?x187 ?x194)))
(let ((?x322 (+ ?x187 ?x197)))
(let ((?x389 (ite $x112 ?x322 ?x321)))
(let ((?x5576 (ite $x5024 ?x389 0.0)))
(let ((?x6214 (* (~ (/ 171.0 500.0)) ?x5576)))
(let ((?x6640 (* (/ 939.0 1000.0) ?x4699)))
(let ((?x6186 (+ ?x6640 ?x6214)))
(let ((?x6223 (* (/ 171.0 500.0) ?x5576)))
(let ((?x6614 (+ ?x6640 ?x6223)))
(let (($x5917 (>= ?x4699 0.0)))
(let ((?x6821 (ite $x5917 ?x6614 ?x6186)))
(let ((?x4166 (* (~ (/ 171.0 500.0)) 1.0)))
(let ((?x4618 (+ ?x4166 ?x187)))
(let ((?x5110 (* (/ 171.0 500.0) 1.0)))
(let ((?x3672 (+ ?x5110 ?x187)))
(let ((?x4560 (ite $x350 ?x3672 ?x4618)))
(let ((?x313 (+ ?x197 ?x187)))
(let ((?x314 (+ ?x194 ?x187)))
(let ((?x385 (ite $x112 ?x314 ?x313)))
(let ((?x5485 (ite $x5024 ?x385 ?x4560)))
(let ((?x5934 (- 0.0 ?x5485)))
(let (($x6151 (>= ?x5485 0.0)))
(let ((?x5914 (ite $x6151 ?x5485 ?x5934)))
(let ((?x5179 (- 0.0 ?x4699)))
(let ((?x6270 (ite $x5917 ?x4699 ?x5179)))
(let (($x11183 (>= ?x6270 ?x5914)))
(let ((?x11147 (ite $x11183 ?x6821 ?x4699)))
(let ((?x3509 (* ?x11147 |WristRight Norm|)))
(let ((?x7116 (+ 0.0 ?x3509)))
(let ((?x5226 (+ ?x7116 ?x6247)))
(let ((?x10557 (+ ?x5226 ?x5302)))
(let ((?x2255 (+ ?x10557 ?x4285)))
(let ((?x1420 (+ ?x2255 ?x11271)))
(let ((?x1422 (+ ?x1420 ?x3509)))
(let (($x7876 (< ?x1422 ?x10532)))
(let ((?x9041 (ite $x5917 ?x6186 ?x6614)))
(let ((?x11006 (ite $x11183 ?x9041 ?x4699)))
(let ((?x11042 (* ?x11006 |WristLeft Norm|)))
(let ((?x6432 (* (~ 1.0) |ElbowLeft Norm|)))
(let ((?x1183 (+ 0.0 ?x11042)))
(let ((?x3963 (+ ?x1183 ?x6432)))
(let ((?x11217 (+ ?x3963 ?x417)))
(let ((?x8184 (+ ?x11217 ?x4285)))
(let ((?x3571 (+ ?x8184 ?x11271)))
(let ((?x11877 (+ ?x3571 ?x11042)))
(let (($x10274 (< ?x11877 ?x10532)))
(let ((?x7165 (+ 0.0 ?x6432)))
(let ((?x6101 (+ ?x7165 ?x417)))
(let ((?x10616 (+ ?x6101 ?x4285)))
(let ((?x2510 (+ ?x10616 ?x11271)))
(let ((?x2511 (+ ?x2510 ?x6432)))
(let ((?x624 (- ?x2511 (/ 1.0 10.0))))
(let (($x2266 (< ?x1422 ?x624)))
(let (($x10928 (< ?x11877 ?x624)))
(let (($x597 (and true $x10928)))
(let (($x1351 (and $x597 $x2266)))
(let (($x11682 (and $x1351 $x10274)))
(let (($x10812 (and $x11682 $x7876)))
(let ((?x7295 (- |KneeRight Z| |AnkleLeft Z|)))
(let ((?x6363 (- 0.0 ?x7295)))
(let (($x6338 (>= ?x7295 0.0)))
(let ((?x5940 (ite $x6338 ?x7295 ?x6363)))
(let ((?x6352 (- |KneeRight Y| |AnkleLeft Y|)))
(let ((?x6197 (- 0.0 ?x6352)))
(let (($x6650 (>= ?x6352 0.0)))
(let ((?x6337 (ite $x6650 ?x6352 ?x6197)))
(let ((?x6331 (- |KneeRight X| |AnkleLeft X|)))
(let ((?x6773 (- 0.0 ?x6331)))
(let (($x6768 (>= ?x6331 0.0)))
(let ((?x6060 (ite $x6768 ?x6331 ?x6773)))
(let (($x6532 (>= ?x6060 ?x6337)))
(let ((?x6577 (ite $x6532 ?x6060 ?x6337)))
(let (($x6471 (>= ?x6577 ?x5940)))
(let ((?x6520 (ite $x6471 ?x6577 ?x5940)))
(let (($x5939 (< ?x6520 (/ 347.0 1000.0))))
(let (($x6538 (not $x5939)))
(let ((?x7276 (- |KneeLeft Z| |AnkleLeft Z|)))
(let ((?x7288 (- 0.0 ?x7276)))
(let (($x7287 (>= ?x7276 0.0)))
(let ((?x7290 (ite $x7287 ?x7276 ?x7288)))
(let ((?x7275 (- |KneeLeft Y| |AnkleLeft Y|)))
(let ((?x7284 (- 0.0 ?x7275)))
(let (($x7282 (>= ?x7275 0.0)))
(let ((?x7285 (ite $x7282 ?x7275 ?x7284)))
(let ((?x7273 (- |KneeLeft X| |AnkleLeft X|)))
(let ((?x7279 (- 0.0 ?x7273)))
(let (($x7278 (>= ?x7273 0.0)))
(let ((?x7281 (ite $x7278 ?x7273 ?x7279)))
(let (($x7094 (>= ?x7281 ?x7285)))
(let ((?x7095 (ite $x7094 ?x7281 ?x7285)))
(let (($x7096 (>= ?x7095 ?x7290)))
(let ((?x7097 (ite $x7096 ?x7095 ?x7290)))
(let (($x7099 (< ?x7097 (/ 347.0 1000.0))))
(let (($x6204 (not $x7099)))
(let (($x6275 (and true $x6204)))
(let (($x6539 (and $x6275 $x6538)))
(let (($x1877 (and true true)))
(let (($x11381 (and $x1877 $x6539)))
(let (($x6824 (and $x11381 true)))
(let (($x4787 (and $x6824 true)))
(let (($x11517 (and $x4787 $x10812)))
(let ((?x3957 (- |ThumbRight Z| |ThumbRight Z|)))
(let ((?x5304 (- 0.0 ?x3957)))
(let (($x5305 (>= ?x3957 0.0)))
(let ((?x5307 (ite $x5305 ?x3957 ?x5304)))
(let ((?x2491 (- |ThumbRight Y| |ThumbRight Y|)))
(let ((?x5299 (- 0.0 ?x2491)))
(let (($x5279 (>= ?x2491 0.0)))
(let ((?x5303 (ite $x5279 ?x2491 ?x5299)))
(let ((?x5477 (- |ThumbRight X| |ThumbRight X|)))
(let ((?x5278 (- 0.0 ?x5477)))
(let (($x3697 (>= ?x5477 0.0)))
(let ((?x5294 (ite $x3697 ?x5477 ?x5278)))
(let (($x5085 (>= ?x5294 ?x5303)))
(let ((?x4985 (ite $x5085 ?x5294 ?x5303)))
(let (($x4577 (>= ?x4985 ?x5307)))
(let ((?x3992 (ite $x4577 ?x4985 ?x5307)))
(let (($x5034 (< ?x3992 15.0)))
(let (($x1404 (and $x5034)))
(and $x1404 $x11517 (and (and (and true $x6992) $x7041) $x7944)))))))))))))))))))))))))))))))))))))))))))))))))))))))))))))))))))))))))))))))))))))))))))))))))))))))))))))))))))))))))))))))))))))))))))))))))))))))))))))))))))))))))))))))))))))))))))))))))))))))))))))))))))))))))))))))))))))))))))))))))))))))))))))))
(check-sat)
